c 
c G(n,p) graph
c graph gen seed     : 1689
c number of vertices : 20
c max number of edges: 400
c edge probability   : 0.400000
c data structure     : sparse
c
c           Graph Stats
c number of vertices  : 20
c nonisolated vertices: 20
c number of edges     : 88
c edge density        : 0.463158
c max degree          : 15
c avg degree          : 8.80
c min degree          : 3
p col 20 88
e 1 20
e 1 18
e 1 17
e 1 15
e 1 14
e 1 11
e 1 9
e 1 6
e 1 4
e 1 3
e 2 19
e 2 16
e 2 15
e 2 14
e 2 13
e 2 11
e 2 4
e 3 20
e 3 18
e 3 17
e 3 15
e 3 13
e 3 10
e 3 9
e 3 7
e 3 5
e 4 20
e 4 16
e 4 12
e 4 9
e 4 6
e 4 5
e 5 18
e 5 15
e 5 14
e 5 10
e 5 9
e 6 20
e 6 19
e 6 16
e 6 15
e 6 14
e 6 13
e 6 10
e 6 9
e 6 7
e 7 17
e 7 16
e 7 14
e 7 11
e 7 8
e 8 19
e 8 9
e 9 20
e 9 18
e 9 16
e 9 15
e 9 14
e 10 20
e 10 17
e 10 16
e 10 15
e 10 11
e 11 19
e 11 18
e 11 16
e 11 15
e 11 13
e 11 12
e 12 20
e 12 19
e 12 18
e 12 17
e 12 13
e 13 20
e 13 15
e 13 14
e 14 20
e 14 15
e 15 20
e 15 19
e 15 18
e 15 17
e 15 16
e 16 20
e 17 20
e 18 20
e 19 20
